; SPDX-License-Identifier: MPL-2.0
; Copyright (c) 2026 The RIINA Authors.
; Auto-generated from 02_FORMAL/coq/properties/StoreWfLemmas.v (4 validations)
; Generated by scripts/generate-full-stack.py
;
; Translation Validation for StoreWfLemmas
; Layer 9: Verifies compiler backend preserves formal semantics.
; Each assertion checks source IR ≡ target code for a proven property.

(set-logic QF_LIA)
(set-option :produce-models true)

; IR node representation
(declare-sort IRNode 0)
(declare-sort TargetNode 0)

; store_wf_lookup_value: translation preserves property (matches Coq: Lemma)
(declare-fun source_store_wf_lookup_value () Bool)
(declare-fun target_store_wf_lookup_value () Bool)
(assert (= source_store_wf_lookup_value target_store_wf_lookup_value))

; store_wf_lookup_typed: translation preserves property (matches Coq: Lemma)
(declare-fun source_store_wf_lookup_typed () Bool)
(declare-fun target_store_wf_lookup_typed () Bool)
(assert (= source_store_wf_lookup_typed target_store_wf_lookup_typed))

; store_wf_typed_loc_has_value: translation preserves property (matches Coq: Lemma)
(declare-fun source_store_wf_typed_loc_has_value () Bool)
(declare-fun target_store_wf_typed_loc_has_value () Bool)
(assert (= source_store_wf_typed_loc_has_value target_store_wf_typed_loc_has_value))

; store_wf_typed_loc_gives_typed_value: translation preserves property (matches Coq: Lemma)
(declare-fun source_store_wf_typed_loc_gives_typed_value () Bool)
(declare-fun target_store_wf_typed_loc_gives_typed_value () Bool)
(assert (= source_store_wf_typed_loc_gives_typed_value target_store_wf_typed_loc_gives_typed_value))

; Verify all translation validations are satisfiable
(check-sat)
(exit)
